(set-logic QF_S)
(declare-fun var0 () String)
(assert (RegexIn var0 (RegexConcat (RegexStar (RegexUnion (RegexPlus (RegexStar (RegexPlus (RegexPlus (RegexPlus (RegexUnion (RegexUnion (RegexStar (RegexPlus (RegexPlus (Str2Reg "000")))) (RegexStar (RegexStar (RegexPlus (Str2Reg "11"))))) (RegexUnion (RegexUnion (RegexStar (RegexStar (Str2Reg "2"))) (RegexStar (RegexUnion (Str2Reg "333") (Str2Reg "444")))) (RegexUnion (RegexUnion (RegexUnion (Str2Reg "555") (Str2Reg "6")) (RegexUnion (Str2Reg "777") (Str2Reg "88"))) (RegexUnion (RegexUnion (Str2Reg "9") (Str2Reg "aaa")) (RegexUnion (Str2Reg "bbb") (Str2Reg "ccc"))))))))))) (RegexPlus (RegexStar (RegexUnion (RegexUnion (RegexUnion (RegexUnion (RegexPlus (RegexUnion (RegexPlus (RegexUnion (Str2Reg "d") (Str2Reg "e"))) (RegexPlus (RegexStar (Str2Reg "f"))))) (RegexPlus (RegexPlus (RegexStar (RegexStar (Str2Reg "ggg")))))) (RegexUnion (RegexPlus (RegexUnion (RegexUnion (RegexStar (Str2Reg "h")) (RegexStar (Str2Reg "iii"))) (RegexUnion (RegexStar (Str2Reg "jjj")) (RegexStar (Str2Reg "kk"))))) (RegexPlus (RegexPlus (RegexPlus (RegexStar (Str2Reg "ll"))))))) (RegexUnion (RegexUnion (RegexPlus (RegexUnion (RegexStar (RegexStar (Str2Reg "mm"))) (RegexStar (RegexStar (Str2Reg "n"))))) (RegexPlus (RegexUnion (RegexStar (RegexStar (Str2Reg "o"))) (RegexStar (RegexStar (Str2Reg "pp")))))) (RegexUnion (RegexPlus (RegexStar (RegexPlus (RegexStar (Str2Reg "qq"))))) (RegexPlus (RegexPlus (RegexStar (RegexPlus (Str2Reg "rrr")))))))) (RegexUnion (RegexPlus (RegexStar (RegexPlus (RegexStar (RegexStar (RegexUnion (Str2Reg "sss") (Str2Reg "ttt"))))))) (RegexPlus (RegexStar (RegexPlus (RegexStar (RegexUnion (RegexPlus (Str2Reg "uu")) (RegexPlus (Str2Reg "vvv"))))))))))))) (RegexPlus (RegexPlus (RegexStar (RegexPlus (RegexUnion (RegexUnion (RegexUnion (RegexStar (RegexPlus (RegexPlus (RegexStar (RegexPlus (Str2Reg "ww")))))) (RegexStar (RegexUnion (RegexPlus (RegexUnion (RegexUnion (Str2Reg "xx") (Str2Reg "yyy")) (RegexUnion (Str2Reg "zzz") (Str2Reg "A")))) (RegexPlus (RegexPlus (RegexStar (Str2Reg "BBB"))))))) (RegexUnion (RegexStar (RegexPlus (RegexPlus (RegexPlus (RegexStar (Str2Reg "CCC")))))) (RegexStar (RegexStar (RegexPlus (RegexStar (RegexStar (Str2Reg "DD")))))))) (RegexUnion (RegexUnion (RegexPlus (RegexStar (RegexStar (RegexStar (RegexStar (Str2Reg "EE")))))) (RegexPlus (RegexStar (RegexUnion (RegexStar (RegexPlus (Str2Reg "F"))) (RegexStar (RegexUnion (Str2Reg "GGG") (Str2Reg "H"))))))) (RegexUnion (RegexStar (RegexPlus (RegexUnion (RegexUnion (RegexStar (Str2Reg "III")) (RegexStar (Str2Reg "JJ"))) (RegexUnion (RegexUnion (Str2Reg "KK") (Str2Reg "LLL")) (RegexUnion (Str2Reg "M") (Str2Reg "NNN")))))) (RegexStar (RegexPlus (RegexUnion (RegexPlus (RegexPlus (Str2Reg "O"))) (RegexPlus (RegexPlus (Str2Reg "PPP"))))))))))))))))
(assert (<= 15 (Length var0)))
(check-sat)